; benchmark generated from python API
(set-info :status unknown)
(declare-datatypes ((RealState 0)) (((RMk1 (rval1 Real)) (RMk2 (rval2 Real)))))
 (assert
 (forall ((|v11:0| Real) )(exists ((|v10:1_st| RealState) (val!2724 Real) )(forall ((|v9:2| Real) )(exists ((|v8:3_st| RealState) (val!2725 Real) )(forall ((|v7:4| Real) )(exists ((|v6:5_st| RealState) (val!2726 Real) )(forall ((|v5:6| Real) )(exists ((|v4:7_st| RealState) (val!2727 Real) )(forall ((|v3:8| Real) )(exists ((|v2:9_st| RealState) (val!2728 Real) )(forall ((|v1:10| Real) )(exists ((|v0:11_st| RealState) (val!2729 Real) )(let ((?x1111 (* 4.0 |v1:10|)))
 (let ((?x161 (* 18.0 |v5:6|)))
 (let ((?x2759 (+ (+ (+ (* (- 19.0) (rval2 |v2:9_st|)) (* 9.0 (rval2 |v2:9_st|))) ?x161) ?x1111)))
 (let ((?x991 (- 13.0)))
 (let ((?x953 (rval2 |v4:7_st|)))
 (let ((?x241 (* 2.0 ?x953)))
 (let ((?x325 (- 9.0)))
 (let ((?x2846 (* ?x325 |v5:6|)))
 (let (($x2620 (<= (+ (+ (+ (* 4.0 |v5:6|) (* (- 3.0) (rval2 |v0:11_st|))) ?x2846) ?x241) ?x991)))
 (let ((?x271 (- 20.0)))
 (let ((?x294 (* 15.0 |v1:10|)))
 (let ((?x255 (+ (+ (+ (* (- 7.0) |v1:10|) (* 5.0 |v3:8|)) (* (- 11.0) ?x953)) ?x294)))
 (let ((?x1455 (* 14.0 |v11:0|)))
 (let ((?x3155 (+ (+ (+ (* 20.0 |v5:6|) (* (- 1.0) |v9:2|)) (* 12.0 |v1:10|)) ?x1455)))
 (let ((?x1845 (- 14.0)))
 (let ((?x1598 (* ?x1845 |v1:10|)))
 (let ((?x2456 (+ (+ (* 5.0 |v7:4|) (* ?x1845 (rval2 |v2:9_st|))) (* (- 12.0) (rval2 |v10:1_st|)))))
 (let (($x139 (and (and (<= (+ ?x2456 ?x1598) ?x271) (<= ?x3155 0.0)) (or (<= ?x255 ?x271) $x2620))))
 (let ((?x347 (- 7.0)))
 (let ((?x52 (+ (+ (+ (* 15.0 ?x953) (* 0.0 |v1:10|)) (* (- 18.0) |v3:8|)) (* ?x347 (rval2 |v2:9_st|)))))
 (let ((?x2205 (- 6.0)))
 (let ((?x2356 (rval2 |v2:9_st|)))
 (let ((?x208 (* 10.0 ?x2356)))
 (let ((?x1915 (+ (+ (+ (* (- 19.0) |v7:4|) (* 7.0 |v9:2|)) (* (- 3.0) |v5:6|)) ?x208)))
 (let ((?x2322 (- 10.0)))
 (let ((?x1784 (- 3.0)))
 (let ((?x1721 (* ?x1784 |v3:8|)))
 (let ((?x1437 (+ (+ (+ (* (- 17.0) |v7:4|) (* ?x347 ?x953)) (* (- 18.0) ?x2356)) ?x1721)))
 (let ((?x1985 (rval2 |v0:11_st|)))
 (let ((?x1452 (+ (+ (+ (* 19.0 (rval2 |v8:3_st|)) (* (- 1.0) (rval2 |v6:5_st|))) ?x1985) (* (- 16.0) |v3:8|))))
 (let (($x1487 (and (and (<= ?x1452 ?x991) (<= ?x1437 ?x2322)) (or (<= ?x1915 ?x2205) (<= ?x52 ?x347)))))
 (let ((?x2298 (+ (+ (+ (* 18.0 ?x953) (* ?x271 |v9:2|)) (* 17.0 ?x953)) (* 3.0 |v9:2|))))
 (let ((?x2509 (rval2 |v6:5_st|)))
 (let ((?x2905 (- 15.0)))
 (let ((?x2607 (* ?x2905 ?x2509)))
 (let (($x1293 (<= (+ (+ (+ (* 6.0 |v3:8|) (* ?x2905 |v11:0|)) (* ?x1784 |v5:6|)) ?x2607) 4.0)))
 (let ((?x23 (* 7.0 ?x2509)))
 (let (($x36 (<= (+ (+ (+ (* ?x1784 ?x1985) (* 17.0 |v1:10|)) (* 11.0 |v5:6|)) ?x23) 5.0)))
 (let ((?x908 (- 17.0)))
 (let ((?x2510 (* 7.0 ?x1985)))
 (let ((?x2908 (+ (+ (+ (* 10.0 |v7:4|) (* 10.0 (rval2 |v8:3_st|))) (* ?x991 ?x2509)) ?x2510)))
 (let ((?x2186 (+ (+ (+ (* 12.0 |v9:2|) (* 2.0 ?x1985)) (* ?x2322 (rval2 |v10:1_st|))) (* 18.0 (rval2 |v10:1_st|)))))
 (let ((?x2671 (+ (+ (+ ?x2607 (* 6.0 |v11:0|)) (* (- 2.0) |v5:6|)) (* 14.0 |v5:6|))))
 (let ((?x435 (* 15.0 |v11:0|)))
 (let (($x2766 (<= (+ (+ (+ (* 0.0 |v7:4|) ?x2846) (* 5.0 (rval2 |v8:3_st|))) ?x435) 15.0)))
 (let ((?x3090 (* 8.0 |v3:8|)))
 (let ((?x1720 (+ (+ (+ (* 0.0 ?x953) (* 20.0 (rval2 |v8:3_st|))) (* ?x991 |v11:0|)) ?x3090)))
 (let (($x642 (or (or (and (<= ?x1720 14.0) $x2766) (or (<= ?x2671 ?x347) (<= ?x2186 ?x1845))) (and (and (<= ?x2908 ?x908) $x36) (and $x1293 (<= ?x2298 11.0))))))
 (let ((?x843 (+ (+ (+ (* ?x271 |v1:10|) (* ?x325 |v11:0|)) (* ?x2322 (rval2 |v8:3_st|))) (* 2.0 ?x2356))))
 (let ((?x421 (+ (+ (+ (* ?x347 |v3:8|) (* (- 11.0) ?x2356)) (* (- 19.0) ?x2509)) (* ?x1784 (rval2 |v8:3_st|)))))
 (let ((?x3033 (- 8.0)))
 (let ((?x1873 (* ?x2905 |v5:6|)))
 (let (($x136 (<= (+ (+ (+ ?x294 (* ?x325 (rval2 |v8:3_st|))) (* 19.0 ?x953)) ?x1873) ?x3033)))
 (let ((?x1382 (* 18.0 ?x953)))
 (let (($x2781 (<= (+ (+ (+ (* ?x271 |v7:4|) ?x1455) (* ?x2905 (rval2 |v8:3_st|))) ?x1382) ?x991)))
 (let ((?x167 (+ (+ (* (- 16.0) |v7:4|) (* ?x325 ?x953)) (* (- 19.0) (rval2 |v8:3_st|)))))
 (let ((?x2640 (+ (+ (+ ?x294 (* 3.0 ?x953)) (* 5.0 (rval2 |v8:3_st|))) (* (- 1.0) |v11:0|))))
 (let (($x394 (and (or (<= ?x2640 ?x271) (<= (+ ?x167 (* 4.0 ?x2356)) 10.0)) (or (or $x2781 $x136) (and (<= ?x421 8.0) (<= ?x843 7.0))))))
 (let ((?x1219 (* 12.0 |v5:6|)))
 (let ((?x2042 (+ (+ (+ (* 10.0 |v9:2|) (* (- 1.0) ?x1985)) (* 20.0 |v11:0|)) ?x1219)))
 (let (($x2263 (and (or (and (<= ?x2042 ?x271) $x394) (or $x642 (or $x1487 $x139))) (<= ?x2759 13.0))))
 (let (($x1423 (not (= |v0:11_st| (RMk1 val!2729)))))
 (let (($x937 (not (= |v2:9_st| (RMk1 val!2728)))))
 (let (($x1277 (not (= |v4:7_st| (RMk1 val!2727)))))
 (let (($x1151 (not (= |v6:5_st| (RMk1 val!2726)))))
 (let (($x1011 (not (= |v8:3_st| (RMk1 val!2725)))))
 (let (($x439 (not (= |v10:1_st| (RMk1 val!2724)))))
 (and $x439 $x1011 $x1151 $x1277 $x937 $x1423 $x2263)))))))))))))))))))))))))))))))))))))))))))))))))))))))))))))))))))))
 )
 )
 )
 )
 )
 )
 )
 )
 )
 )
 )
 )
(check-sat)
